&projwfc 
	prefix       = 'SrVO3'
	outdir       = './results/'
	filpdos      = './projwfc/'
	filproj      = './projwfc/'
/
